90 48 90 90 48 90 90 90 48 48 90 48 48 48 48 48 90 90 48 90 90 48 90 48 48 90 90 90 48 90 90 90 48 90 90 90 90 90 48 48 48 48 90 90 48 90 48 48 90 48 48 48 90 48 90 48 48 90 48 48 90 48 48 48 48 48 90 90 48 48 48 48 90 90 48 48 90 48 90 90 90 48 48 90 90 48 90 90 48 48 48 48 48 90 48 90 48 48 90 90 